
%FILE DATA:	Soccer Computational Problem for MiniZinc Models	%
%AUTHOR:	Jack Wall	%
%CONTACT:  	116397063@umail.ucc.ie			%
%LAST UPDATE:	03/19/2020, 13:39:23						%
%DESCRIPTION: 	195 games played with 15 games left				%


n=15; %number of teams

%Games to play
games=[|7,6|15,4|9,13|5,7|13,4|14,11|9,5|9,2|14,15|7,11|12,10|13,3|12,3|12,1|14,6|];

%Initial points
iPoints=[40,37,36,31,37,33,30,43,40,37,30,25,32,30,44];

%POSITION CONSTRAINTS
% [|teamID, operator, position|...]
% operators index:
%  1 for =  operator
%  2 for >  operator
%  3 for >= operator
%  4 for <  operator
%  5 for <= operator
positionConstraints=[|15,3,1|8,5,2|9,3,3|];